words_hard_train/4842.qaiger
aag 74 17 0 1 57
2
4
12
16
22
24
48
50
64
70
72
90
92
112
114
130
132
149
6 3 5
8 2 4
10 7 9
14 10 12
18 14 16
20 19 9
26 23 25
28 22 24
30 27 29
32 20 31
34 21 30
36 33 35
38 11 13
40 38 17
42 41 19
44 37 43
46 35 29
52 49 51
54 48 50
56 53 55
58 46 57
60 47 56
62 59 61
66 63 64
68 61 55
74 71 73
76 70 72
78 75 77
80 68 79
82 69 78
84 81 83
86 66 85
88 83 77
94 91 93
96 90 92
98 95 97
100 88 99
102 89 98
104 101 103
106 86 105
108 44 106
110 103 97
116 113 115
118 112 114
120 117 119
122 110 121
124 111 120
126 123 125
128 108 127
134 130 133
136 131 132
138 135 137
140 125 119
142 138 140
144 139 141
146 143 145
148 129 147
i0 1 x2[1]
i1 2 y1[1]
i2 2 y1[0]
i3 1 x2[0]
i4 1 x2[2]
i5 2 y1[2]
i6 1 x2[3]
i7 2 y1[3]
i8 2 y2[0]
i9 1 x2[4]
i10 2 y1[4]
i11 1 x2[5]
i12 2 y1[5]
i13 1 x2[6]
i14 2 y1[6]
i15 1 x2[7]
i16 2 y1[7]
o0 bv[0]
c
simplified
  <
    subtract
      1 x2
      unary minus
        2 y1
    and
      2 y2
      1
