words_hard_train/4842.qaiger.qdimacs
p cnf 74 172
a 1 65 35 8 11 45 24 56 0
e 2 3 4 5 6 7 9 10 12 13 14 15 16 17 18 19 20 21 22 23 25 26 27 28 29 30 31 32 33 34 36 37 38 39 40 41 42 43 44 46 47 48 49 50 51 52 53 54 55 57 58 59 60 61 62 63 64 66 67 68 69 70 71 72 73 74 0
1 2 3 0
-1 -3 0
-2 -3 0
-1 -2 4 0
1 -4 0
2 -4 0
3 4 5 0
-3 -5 0
-4 -5 0
-5 -6 7 0
5 -7 0
6 -7 0
-7 -8 9 0
7 -9 0
8 -9 0
9 4 10 0
-9 -10 0
-4 -10 0
11 12 13 0
-11 -13 0
-12 -13 0
-11 -12 14 0
11 -14 0
12 -14 0
13 14 15 0
-13 -15 0
-14 -15 0
-10 15 16 0
10 -16 0
-15 -16 0
10 -15 17 0
-10 -17 0
15 -17 0
16 17 18 0
-16 -18 0
-17 -18 0
5 6 19 0
-5 -19 0
-6 -19 0
-19 8 20 0
19 -20 0
-8 -20 0
20 9 21 0
-20 -21 0
-9 -21 0
18 21 22 0
-18 -22 0
-21 -22 0
17 14 23 0
-17 -23 0
-14 -23 0
24 25 26 0
-24 -26 0
-25 -26 0
-24 -25 27 0
24 -27 0
25 -27 0
26 27 28 0
-26 -28 0
-27 -28 0
-23 28 29 0
23 -29 0
-28 -29 0
23 -28 30 0
-23 -30 0
28 -30 0
29 30 31 0
-29 -31 0
-30 -31 0
31 -32 33 0
-31 -33 0
32 -33 0
30 27 34 0
-30 -34 0
-27 -34 0
35 36 37 0
-35 -37 0
-36 -37 0
-35 -36 38 0
35 -38 0
36 -38 0
37 38 39 0
-37 -39 0
-38 -39 0
-34 39 40 0
34 -40 0
-39 -40 0
34 -39 41 0
-34 -41 0
39 -41 0
40 41 42 0
-40 -42 0
-41 -42 0
-33 42 43 0
33 -43 0
-42 -43 0
41 38 44 0
-41 -44 0
-38 -44 0
45 46 47 0
-45 -47 0
-46 -47 0
-45 -46 48 0
45 -48 0
46 -48 0
47 48 49 0
-47 -49 0
-48 -49 0
-44 49 50 0
44 -50 0
-49 -50 0
44 -49 51 0
-44 -51 0
49 -51 0
50 51 52 0
-50 -52 0
-51 -52 0
-43 52 53 0
43 -53 0
-52 -53 0
-22 -53 54 0
22 -54 0
53 -54 0
51 48 55 0
-51 -55 0
-48 -55 0
56 57 58 0
-56 -58 0
-57 -58 0
-56 -57 59 0
56 -59 0
57 -59 0
58 59 60 0
-58 -60 0
-59 -60 0
-55 60 61 0
55 -61 0
-60 -61 0
55 -60 62 0
-55 -62 0
60 -62 0
61 62 63 0
-61 -63 0
-62 -63 0
-54 63 64 0
54 -64 0
-63 -64 0
-65 66 67 0
65 -67 0
-66 -67 0
65 -66 68 0
-65 -68 0
66 -68 0
67 68 69 0
-67 -69 0
-68 -69 0
62 59 70 0
-62 -70 0
-59 -70 0
-69 -70 71 0
69 -71 0
70 -71 0
69 70 72 0
-69 -72 0
-70 -72 0
71 72 73 0
-71 -73 0
-72 -73 0
64 73 74 0
-64 -74 0
-73 -74 0
-74 0
